c File: flat50_3_0.col
c
c SOURCE: Joseph Culberson (joe@cs.ualberta.ca)
c DESCRIPTION: Quasi-random coloring problem
c              generated with flatness = 0
c                             probability = 0.139
c                             known coloring = 3
c                             random seed = 1602
c              Creation Date:  Tue Jun  9 12:13:20 1998
c Maximum degree = 8 Minimum degree = 2
c p edge 50 115
c cnf created by edge2cnf
p cnf 150 545
-1 -2 0
-1 -3 0
-2 -3 0
1 2 3 0
-4 -5 0
-4 -6 0
-5 -6 0
4 5 6 0
-7 -8 0
-7 -9 0
-8 -9 0
7 8 9 0
-10 -11 0
-10 -12 0
-11 -12 0
10 11 12 0
-13 -14 0
-13 -15 0
-14 -15 0
13 14 15 0
-16 -17 0
-16 -18 0
-17 -18 0
16 17 18 0
-19 -20 0
-19 -21 0
-20 -21 0
19 20 21 0
-22 -23 0
-22 -24 0
-23 -24 0
22 23 24 0
-25 -26 0
-25 -27 0
-26 -27 0
25 26 27 0
-28 -29 0
-28 -30 0
-29 -30 0
28 29 30 0
-31 -32 0
-31 -33 0
-32 -33 0
31 32 33 0
-34 -35 0
-34 -36 0
-35 -36 0
34 35 36 0
-37 -38 0
-37 -39 0
-38 -39 0
37 38 39 0
-40 -41 0
-40 -42 0
-41 -42 0
40 41 42 0
-43 -44 0
-43 -45 0
-44 -45 0
43 44 45 0
-46 -47 0
-46 -48 0
-47 -48 0
46 47 48 0
-49 -50 0
-49 -51 0
-50 -51 0
49 50 51 0
-52 -53 0
-52 -54 0
-53 -54 0
52 53 54 0
-55 -56 0
-55 -57 0
-56 -57 0
55 56 57 0
-58 -59 0
-58 -60 0
-59 -60 0
58 59 60 0
-61 -62 0
-61 -63 0
-62 -63 0
61 62 63 0
-64 -65 0
-64 -66 0
-65 -66 0
64 65 66 0
-67 -68 0
-67 -69 0
-68 -69 0
67 68 69 0
-70 -71 0
-70 -72 0
-71 -72 0
70 71 72 0
-73 -74 0
-73 -75 0
-74 -75 0
73 74 75 0
-76 -77 0
-76 -78 0
-77 -78 0
76 77 78 0
-79 -80 0
-79 -81 0
-80 -81 0
79 80 81 0
-82 -83 0
-82 -84 0
-83 -84 0
82 83 84 0
-85 -86 0
-85 -87 0
-86 -87 0
85 86 87 0
-88 -89 0
-88 -90 0
-89 -90 0
88 89 90 0
-91 -92 0
-91 -93 0
-92 -93 0
91 92 93 0
-94 -95 0
-94 -96 0
-95 -96 0
94 95 96 0
-97 -98 0
-97 -99 0
-98 -99 0
97 98 99 0
-100 -101 0
-100 -102 0
-101 -102 0
100 101 102 0
-103 -104 0
-103 -105 0
-104 -105 0
103 104 105 0
-106 -107 0
-106 -108 0
-107 -108 0
106 107 108 0
-109 -110 0
-109 -111 0
-110 -111 0
109 110 111 0
-112 -113 0
-112 -114 0
-113 -114 0
112 113 114 0
-115 -116 0
-115 -117 0
-116 -117 0
115 116 117 0
-118 -119 0
-118 -120 0
-119 -120 0
118 119 120 0
-121 -122 0
-121 -123 0
-122 -123 0
121 122 123 0
-124 -125 0
-124 -126 0
-125 -126 0
124 125 126 0
-127 -128 0
-127 -129 0
-128 -129 0
127 128 129 0
-130 -131 0
-130 -132 0
-131 -132 0
130 131 132 0
-133 -134 0
-133 -135 0
-134 -135 0
133 134 135 0
-136 -137 0
-136 -138 0
-137 -138 0
136 137 138 0
-139 -140 0
-139 -141 0
-140 -141 0
139 140 141 0
-142 -143 0
-142 -144 0
-143 -144 0
142 143 144 0
-145 -146 0
-145 -147 0
-146 -147 0
145 146 147 0
-148 -149 0
-148 -150 0
-149 -150 0
148 149 150 0
-70 -1 0
-71 -2 0
-72 -3 0
-79 -1 0
-80 -2 0
-81 -3 0
-94 -1 0
-95 -2 0
-96 -3 0
-103 -1 0
-104 -2 0
-105 -3 0
-118 -1 0
-119 -2 0
-120 -3 0
-145 -1 0
-146 -2 0
-147 -3 0
-148 -1 0
-149 -2 0
-150 -3 0
-58 -4 0
-59 -5 0
-60 -6 0
-145 -4 0
-146 -5 0
-147 -6 0
-58 -7 0
-59 -8 0
-60 -9 0
-67 -7 0
-68 -8 0
-69 -9 0
-91 -7 0
-92 -8 0
-93 -9 0
-142 -7 0
-143 -8 0
-144 -9 0
-100 -10 0
-101 -11 0
-102 -12 0
-127 -10 0
-128 -11 0
-129 -12 0
-148 -10 0
-149 -11 0
-150 -12 0
-70 -13 0
-71 -14 0
-72 -15 0
-76 -13 0
-77 -14 0
-78 -15 0
-100 -13 0
-101 -14 0
-102 -15 0
-121 -13 0
-122 -14 0
-123 -15 0
-70 -16 0
-71 -17 0
-72 -18 0
-103 -16 0
-104 -17 0
-105 -18 0
-118 -16 0
-119 -17 0
-120 -18 0
-121 -16 0
-122 -17 0
-123 -18 0
-64 -19 0
-65 -20 0
-66 -21 0
-85 -19 0
-86 -20 0
-87 -21 0
-94 -19 0
-95 -20 0
-96 -21 0
-139 -19 0
-140 -20 0
-141 -21 0
-61 -22 0
-62 -23 0
-63 -24 0
-79 -22 0
-80 -23 0
-81 -24 0
-88 -22 0
-89 -23 0
-90 -24 0
-103 -22 0
-104 -23 0
-105 -24 0
-130 -22 0
-131 -23 0
-132 -24 0
-79 -25 0
-80 -26 0
-81 -27 0
-136 -25 0
-137 -26 0
-138 -27 0
-73 -28 0
-74 -29 0
-75 -30 0
-82 -28 0
-83 -29 0
-84 -30 0
-115 -28 0
-116 -29 0
-117 -30 0
-133 -28 0
-134 -29 0
-135 -30 0
-145 -28 0
-146 -29 0
-147 -30 0
-52 -31 0
-53 -32 0
-54 -33 0
-76 -31 0
-77 -32 0
-78 -33 0
-91 -31 0
-92 -32 0
-93 -33 0
-64 -34 0
-65 -35 0
-66 -36 0
-91 -34 0
-92 -35 0
-93 -36 0
-94 -34 0
-95 -35 0
-96 -36 0
-97 -34 0
-98 -35 0
-99 -36 0
-127 -34 0
-128 -35 0
-129 -36 0
-133 -34 0
-134 -35 0
-135 -36 0
-52 -37 0
-53 -38 0
-54 -39 0
-61 -37 0
-62 -38 0
-63 -39 0
-73 -37 0
-74 -38 0
-75 -39 0
-76 -37 0
-77 -38 0
-78 -39 0
-115 -37 0
-116 -38 0
-117 -39 0
-130 -37 0
-131 -38 0
-132 -39 0
-67 -40 0
-68 -41 0
-69 -42 0
-73 -40 0
-74 -41 0
-75 -42 0
-85 -40 0
-86 -41 0
-87 -42 0
-91 -40 0
-92 -41 0
-93 -42 0
-109 -40 0
-110 -41 0
-111 -42 0
-112 -40 0
-113 -41 0
-114 -42 0
-136 -40 0
-137 -41 0
-138 -42 0
-142 -40 0
-143 -41 0
-144 -42 0
-52 -43 0
-53 -44 0
-54 -45 0
-85 -43 0
-86 -44 0
-87 -45 0
-106 -43 0
-107 -44 0
-108 -45 0
-136 -43 0
-137 -44 0
-138 -45 0
-145 -43 0
-146 -44 0
-147 -45 0
-52 -46 0
-53 -47 0
-54 -48 0
-85 -46 0
-86 -47 0
-87 -48 0
-115 -46 0
-116 -47 0
-117 -48 0
-130 -46 0
-131 -47 0
-132 -48 0
-136 -46 0
-137 -47 0
-138 -48 0
-112 -49 0
-113 -50 0
-114 -51 0
-121 -49 0
-122 -50 0
-123 -51 0
-124 -49 0
-125 -50 0
-126 -51 0
-139 -49 0
-140 -50 0
-141 -51 0
-109 -52 0
-110 -53 0
-111 -54 0
-112 -52 0
-113 -53 0
-114 -54 0
-115 -52 0
-116 -53 0
-117 -54 0
-136 -52 0
-137 -53 0
-138 -54 0
-115 -55 0
-116 -56 0
-117 -57 0
-145 -55 0
-146 -56 0
-147 -57 0
-148 -55 0
-149 -56 0
-150 -57 0
-124 -58 0
-125 -59 0
-126 -60 0
-127 -58 0
-128 -59 0
-129 -60 0
-142 -58 0
-143 -59 0
-144 -60 0
-112 -61 0
-113 -62 0
-114 -63 0
-118 -61 0
-119 -62 0
-120 -63 0
-106 -64 0
-107 -65 0
-108 -66 0
-115 -64 0
-116 -65 0
-117 -66 0
-118 -64 0
-119 -65 0
-120 -66 0
-130 -64 0
-131 -65 0
-132 -66 0
-103 -67 0
-104 -68 0
-105 -69 0
-118 -67 0
-119 -68 0
-120 -69 0
-121 -67 0
-122 -68 0
-123 -69 0
-130 -67 0
-131 -68 0
-132 -69 0
-109 -70 0
-110 -71 0
-111 -72 0
-142 -70 0
-143 -71 0
-144 -72 0
-118 -73 0
-119 -74 0
-120 -75 0
-133 -73 0
-134 -74 0
-135 -75 0
-124 -76 0
-125 -77 0
-126 -78 0
-103 -79 0
-104 -80 0
-105 -81 0
-130 -79 0
-131 -80 0
-132 -81 0
-142 -79 0
-143 -80 0
-144 -81 0
-112 -82 0
-113 -83 0
-114 -84 0
-148 -82 0
-149 -83 0
-150 -84 0
-106 -85 0
-107 -86 0
-108 -87 0
-133 -85 0
-134 -86 0
-135 -87 0
-109 -88 0
-110 -89 0
-111 -90 0
-106 -91 0
-107 -92 0
-108 -93 0
-127 -97 0
-128 -98 0
-129 -99 0
-148 -97 0
-149 -98 0
-150 -99 0
-127 -100 0
-128 -101 0
-129 -102 0
-130 -100 0
-131 -101 0
-132 -102 0
